certificates/rado_a5_c286_N56.cnf
c Rad2 upper bound instance: x1 + 5*x2 - x3 = 286, interval [1,56]
p cnf 56 550
1 7 56 0
-1 -7 -56 0
2 8 56 0
-2 -8 -56 0
3 9 56 0
-3 -9 -56 0
4 10 56 0
-4 -10 -56 0
5 11 56 0
-5 -11 -56 0
1 12 55 0
-1 -12 -55 0
6 12 56 0
-6 -12 -56 0
2 13 55 0
-2 -13 -55 0
7 13 56 0
-7 -13 -56 0
3 14 55 0
-3 -14 -55 0
8 14 56 0
-8 -14 -56 0
4 15 55 0
-4 -15 -55 0
9 15 56 0
-9 -15 -56 0
5 16 55 0
-5 -16 -55 0
10 16 56 0
-10 -16 -56 0
1 17 54 0
-1 -17 -54 0
6 17 55 0
-6 -17 -55 0
11 17 56 0
-11 -17 -56 0
2 18 54 0
-2 -18 -54 0
7 18 55 0
-7 -18 -55 0
12 18 56 0
-12 -18 -56 0
3 19 54 0
-3 -19 -54 0
8 19 55 0
-8 -19 -55 0
13 19 56 0
-13 -19 -56 0
4 20 54 0
-4 -20 -54 0
9 20 55 0
-9 -20 -55 0
14 20 56 0
-14 -20 -56 0
5 21 54 0
-5 -21 -54 0
10 21 55 0
-10 -21 -55 0
15 21 56 0
-15 -21 -56 0
1 22 53 0
-1 -22 -53 0
6 22 54 0
-6 -22 -54 0
11 22 55 0
-11 -22 -55 0
16 22 56 0
-16 -22 -56 0
2 23 53 0
-2 -23 -53 0
7 23 54 0
-7 -23 -54 0
12 23 55 0
-12 -23 -55 0
17 23 56 0
-17 -23 -56 0
3 24 53 0
-3 -24 -53 0
8 24 54 0
-8 -24 -54 0
13 24 55 0
-13 -24 -55 0
18 24 56 0
-18 -24 -56 0
4 25 53 0
-4 -25 -53 0
9 25 54 0
-9 -25 -54 0
14 25 55 0
-14 -25 -55 0
19 25 56 0
-19 -25 -56 0
5 26 53 0
-5 -26 -53 0
10 26 54 0
-10 -26 -54 0
15 26 55 0
-15 -26 -55 0
20 26 56 0
-20 -26 -56 0
1 27 52 0
-1 -27 -52 0
6 27 53 0
-6 -27 -53 0
11 27 54 0
-11 -27 -54 0
16 27 55 0
-16 -27 -55 0
21 27 56 0
-21 -27 -56 0
2 28 52 0
-2 -28 -52 0
7 28 53 0
-7 -28 -53 0
12 28 54 0
-12 -28 -54 0
17 28 55 0
-17 -28 -55 0
22 28 56 0
-22 -28 -56 0
3 29 52 0
-3 -29 -52 0
8 29 53 0
-8 -29 -53 0
13 29 54 0
-13 -29 -54 0
18 29 55 0
-18 -29 -55 0
23 29 56 0
-23 -29 -56 0
4 30 52 0
-4 -30 -52 0
9 30 53 0
-9 -30 -53 0
14 30 54 0
-14 -30 -54 0
19 30 55 0
-19 -30 -55 0
24 30 56 0
-24 -30 -56 0
5 31 52 0
-5 -31 -52 0
10 31 53 0
-10 -31 -53 0
15 31 54 0
-15 -31 -54 0
20 31 55 0
-20 -31 -55 0
25 31 56 0
-25 -31 -56 0
1 32 51 0
-1 -32 -51 0
6 32 52 0
-6 -32 -52 0
11 32 53 0
-11 -32 -53 0
16 32 54 0
-16 -32 -54 0
21 32 55 0
-21 -32 -55 0
26 32 56 0
-26 -32 -56 0
2 33 51 0
-2 -33 -51 0
7 33 52 0
-7 -33 -52 0
12 33 53 0
-12 -33 -53 0
17 33 54 0
-17 -33 -54 0
22 33 55 0
-22 -33 -55 0
27 33 56 0
-27 -33 -56 0
3 34 51 0
-3 -34 -51 0
8 34 52 0
-8 -34 -52 0
13 34 53 0
-13 -34 -53 0
18 34 54 0
-18 -34 -54 0
23 34 55 0
-23 -34 -55 0
28 34 56 0
-28 -34 -56 0
4 35 51 0
-4 -35 -51 0
9 35 52 0
-9 -35 -52 0
14 35 53 0
-14 -35 -53 0
19 35 54 0
-19 -35 -54 0
24 35 55 0
-24 -35 -55 0
29 35 56 0
-29 -35 -56 0
5 36 51 0
-5 -36 -51 0
10 36 52 0
-10 -36 -52 0
15 36 53 0
-15 -36 -53 0
20 36 54 0
-20 -36 -54 0
25 36 55 0
-25 -36 -55 0
30 36 56 0
-30 -36 -56 0
1 37 50 0
-1 -37 -50 0
6 37 51 0
-6 -37 -51 0
11 37 52 0
-11 -37 -52 0
16 37 53 0
-16 -37 -53 0
21 37 54 0
-21 -37 -54 0
26 37 55 0
-26 -37 -55 0
31 37 56 0
-31 -37 -56 0
2 38 50 0
-2 -38 -50 0
7 38 51 0
-7 -38 -51 0
12 38 52 0
-12 -38 -52 0
17 38 53 0
-17 -38 -53 0
22 38 54 0
-22 -38 -54 0
27 38 55 0
-27 -38 -55 0
32 38 56 0
-32 -38 -56 0
3 39 50 0
-3 -39 -50 0
8 39 51 0
-8 -39 -51 0
13 39 52 0
-13 -39 -52 0
18 39 53 0
-18 -39 -53 0
23 39 54 0
-23 -39 -54 0
28 39 55 0
-28 -39 -55 0
33 39 56 0
-33 -39 -56 0
4 40 50 0
-4 -40 -50 0
9 40 51 0
-9 -40 -51 0
14 40 52 0
-14 -40 -52 0
19 40 53 0
-19 -40 -53 0
24 40 54 0
-24 -40 -54 0
29 40 55 0
-29 -40 -55 0
34 40 56 0
-34 -40 -56 0
5 41 50 0
-5 -41 -50 0
10 41 51 0
-10 -41 -51 0
15 41 52 0
-15 -41 -52 0
20 41 53 0
-20 -41 -53 0
25 41 54 0
-25 -41 -54 0
30 41 55 0
-30 -41 -55 0
35 41 56 0
-35 -41 -56 0
1 42 49 0
-1 -42 -49 0
6 42 50 0
-6 -42 -50 0
11 42 51 0
-11 -42 -51 0
16 42 52 0
-16 -42 -52 0
21 42 53 0
-21 -42 -53 0
26 42 54 0
-26 -42 -54 0
31 42 55 0
-31 -42 -55 0
36 42 56 0
-36 -42 -56 0
2 43 49 0
-2 -43 -49 0
7 43 50 0
-7 -43 -50 0
12 43 51 0
-12 -43 -51 0
17 43 52 0
-17 -43 -52 0
22 43 53 0
-22 -43 -53 0
27 43 54 0
-27 -43 -54 0
32 43 55 0
-32 -43 -55 0
37 43 56 0
-37 -43 -56 0
3 44 49 0
-3 -44 -49 0
8 44 50 0
-8 -44 -50 0
13 44 51 0
-13 -44 -51 0
18 44 52 0
-18 -44 -52 0
23 44 53 0
-23 -44 -53 0
28 44 54 0
-28 -44 -54 0
33 44 55 0
-33 -44 -55 0
38 44 56 0
-38 -44 -56 0
4 45 49 0
-4 -45 -49 0
9 45 50 0
-9 -45 -50 0
14 45 51 0
-14 -45 -51 0
19 45 52 0
-19 -45 -52 0
24 45 53 0
-24 -45 -53 0
29 45 54 0
-29 -45 -54 0
34 45 55 0
-34 -45 -55 0
39 45 56 0
-39 -45 -56 0
5 46 49 0
-5 -46 -49 0
10 46 50 0
-10 -46 -50 0
15 46 51 0
-15 -46 -51 0
20 46 52 0
-20 -46 -52 0
25 46 53 0
-25 -46 -53 0
30 46 54 0
-30 -46 -54 0
35 46 55 0
-35 -46 -55 0
40 46 56 0
-40 -46 -56 0
1 47 48 0
-1 -47 -48 0
6 47 49 0
-6 -47 -49 0
11 47 50 0
-11 -47 -50 0
16 47 51 0
-16 -47 -51 0
21 47 52 0
-21 -47 -52 0
26 47 53 0
-26 -47 -53 0
31 47 54 0
-31 -47 -54 0
36 47 55 0
-36 -47 -55 0
41 47 56 0
-41 -47 -56 0
2 48 0
-2 -48 0
7 48 49 0
-7 -48 -49 0
12 48 50 0
-12 -48 -50 0
17 48 51 0
-17 -48 -51 0
22 48 52 0
-22 -48 -52 0
27 48 53 0
-27 -48 -53 0
32 48 54 0
-32 -48 -54 0
37 48 55 0
-37 -48 -55 0
42 48 56 0
-42 -48 -56 0
3 48 49 0
-3 -48 -49 0
8 49 0
-8 -49 0
13 49 50 0
-13 -49 -50 0
18 49 51 0
-18 -49 -51 0
23 49 52 0
-23 -49 -52 0
28 49 53 0
-28 -49 -53 0
33 49 54 0
-33 -49 -54 0
38 49 55 0
-38 -49 -55 0
43 49 56 0
-43 -49 -56 0
4 48 50 0
-4 -48 -50 0
9 49 50 0
-9 -49 -50 0
14 50 0
-14 -50 0
19 50 51 0
-19 -50 -51 0
24 50 52 0
-24 -50 -52 0
29 50 53 0
-29 -50 -53 0
34 50 54 0
-34 -50 -54 0
39 50 55 0
-39 -50 -55 0
44 50 56 0
-44 -50 -56 0
5 48 51 0
-5 -48 -51 0
10 49 51 0
-10 -49 -51 0
15 50 51 0
-15 -50 -51 0
20 51 0
-20 -51 0
25 51 52 0
-25 -51 -52 0
30 51 53 0
-30 -51 -53 0
35 51 54 0
-35 -51 -54 0
40 51 55 0
-40 -51 -55 0
45 51 56 0
-45 -51 -56 0
1 47 52 0
-1 -47 -52 0
6 48 52 0
-6 -48 -52 0
11 49 52 0
-11 -49 -52 0
16 50 52 0
-16 -50 -52 0
21 51 52 0
-21 -51 -52 0
26 52 0
-26 -52 0
31 52 53 0
-31 -52 -53 0
36 52 54 0
-36 -52 -54 0
41 52 55 0
-41 -52 -55 0
46 52 56 0
-46 -52 -56 0
2 47 53 0
-2 -47 -53 0
7 48 53 0
-7 -48 -53 0
12 49 53 0
-12 -49 -53 0
17 50 53 0
-17 -50 -53 0
22 51 53 0
-22 -51 -53 0
27 52 53 0
-27 -52 -53 0
32 53 0
-32 -53 0
37 53 54 0
-37 -53 -54 0
42 53 55 0
-42 -53 -55 0
47 53 56 0
-47 -53 -56 0
3 47 54 0
-3 -47 -54 0
8 48 54 0
-8 -48 -54 0
13 49 54 0
-13 -49 -54 0
18 50 54 0
-18 -50 -54 0
23 51 54 0
-23 -51 -54 0
28 52 54 0
-28 -52 -54 0
33 53 54 0
-33 -53 -54 0
38 54 0
-38 -54 0
43 54 55 0
-43 -54 -55 0
48 54 56 0
-48 -54 -56 0
4 47 55 0
-4 -47 -55 0
9 48 55 0
-9 -48 -55 0
14 49 55 0
-14 -49 -55 0
19 50 55 0
-19 -50 -55 0
24 51 55 0
-24 -51 -55 0
29 52 55 0
-29 -52 -55 0
34 53 55 0
-34 -53 -55 0
39 54 55 0
-39 -54 -55 0
44 55 0
-44 -55 0
49 55 56 0
-49 -55 -56 0
5 47 56 0
-5 -47 -56 0
10 48 56 0
-10 -48 -56 0
15 49 56 0
-15 -49 -56 0
20 50 56 0
-20 -50 -56 0
25 51 56 0
-25 -51 -56 0
30 52 56 0
-30 -52 -56 0
35 53 56 0
-35 -53 -56 0
40 54 56 0
-40 -54 -56 0
45 55 56 0
-45 -55 -56 0
50 56 0
-50 -56 0
