certificates/rado_a5_c286_N56.drat
-56 0
50 0
-14 0
8 0
20 0
-44 0
-49 0
-51 0
13 0
38 0
55 0
18 0
43 0
10 0
15 0
3 0
45 0
25 0
-24 0
-2 0
-27 0
-54 0
-39 0
-19 0
-9 0
-31 0
-7 0
-29 0
-32 0
-21 0
-46 0
-4 0
-26 0
-34 0
-36 0
30 0
40 0
48 0
33 0
11 0
0
